\Problem name: 

Minimize
OBJROW: y_1 + y_2 + y_3 + y_4 + y_5 + y_6
Subject To
constr(0):  x_1_1 + x_1_2 + x_1_3 + x_1_4 + x_1_5 + x_1_6 = 1
constr(1):  x_2_1 + x_2_2 + x_2_3 + x_2_4 + x_2_5 + x_2_6 = 1
constr(2):  x_3_1 + x_3_2 + x_3_3 + x_3_4 + x_3_5 + x_3_6 = 1
constr(3):  x_4_1 + x_4_2 + x_4_3 + x_4_4 + x_4_5 + x_4_6 = 1
constr(4):  x_5_1 + x_5_2 + x_5_3 + x_5_4 + x_5_5 + x_5_6 = 1
constr(5):  x_6_1 + x_6_2 + x_6_3 + x_6_4 + x_6_5 + x_6_6 = 1
constr(6):  - y_1 + x_1_1 + x_2_1 <= -0
constr(7):  - y_1 + x_2_1 + x_4_1 + x_6_1 <= -0
constr(8):  - y_1 + x_1_1 + x_5_1 <= -0
constr(9):  - y_1 + x_1_1 + x_6_1 <= -0
constr(10):  - y_1 + x_1_1 + x_3_1 <= -0
constr(11):  - y_1 + x_3_1 + x_4_1 + x_5_1 <= -0
constr(12):  - y_2 + x_1_2 + x_2_2 <= -0
constr(13):  - y_2 + x_2_2 + x_4_2 + x_6_2 <= -0
constr(14):  - y_2 + x_1_2 + x_5_2 <= -0
constr(15):  - y_2 + x_1_2 + x_6_2 <= -0
constr(16):  - y_2 + x_1_2 + x_3_2 <= -0
constr(17):  - y_2 + x_3_2 + x_4_2 + x_5_2 <= -0
constr(18):  - y_3 + x_1_3 + x_2_3 <= -0
constr(19):  - y_3 + x_2_3 + x_4_3 + x_6_3 <= -0
constr(20):  - y_3 + x_1_3 + x_5_3 <= -0
constr(21):  - y_3 + x_1_3 + x_6_3 <= -0
constr(22):  - y_3 + x_1_3 + x_3_3 <= -0
constr(23):  - y_3 + x_3_3 + x_4_3 + x_5_3 <= -0
constr(24):  - y_4 + x_1_4 + x_2_4 <= -0
constr(25):  - y_4 + x_2_4 + x_4_4 + x_6_4 <= -0
constr(26):  - y_4 + x_1_4 + x_5_4 <= -0
constr(27):  - y_4 + x_1_4 + x_6_4 <= -0
constr(28):  - y_4 + x_1_4 + x_3_4 <= -0
constr(29):  - y_4 + x_3_4 + x_4_4 + x_5_4 <= -0
constr(30):  - y_5 + x_1_5 + x_2_5 <= -0
constr(31):  - y_5 + x_2_5 + x_4_5 + x_6_5 <= -0
constr(32):  - y_5 + x_1_5 + x_5_5 <= -0
constr(33):  - y_5 + x_1_5 + x_6_5 <= -0
constr(34):  - y_5 + x_1_5 + x_3_5 <= -0
constr(35):  - y_5 + x_3_5 + x_4_5 + x_5_5 <= -0
constr(36):  - y_6 + x_1_6 + x_2_6 <= -0
constr(37):  - y_6 + x_2_6 + x_4_6 + x_6_6 <= -0
constr(38):  - y_6 + x_1_6 + x_5_6 <= -0
constr(39):  - y_6 + x_1_6 + x_6_6 <= -0
constr(40):  - y_6 + x_1_6 + x_3_6 <= -0
constr(41):  - y_6 + x_3_6 + x_4_6 + x_5_6 <= -0
constr(42):  y_1 <= 1
constr(43):  - y_1 + x_1_1 <= -0
constr(44):  - y_2 + x_1_2 <= -0
constr(45):  - y_3 + x_1_3 <= -0
constr(46):  - y_4 + x_1_4 <= -0
constr(47):  - y_5 + x_1_5 <= -0
constr(48):  - y_6 + x_1_6 <= -0
constr(49):  y_2 <= 1
constr(50):  - y_1 + x_2_1 <= -0
constr(51):  - y_2 + x_2_2 <= -0
constr(52):  - y_3 + x_2_3 <= -0
constr(53):  - y_4 + x_2_4 <= -0
constr(54):  - y_5 + x_2_5 <= -0
constr(55):  - y_6 + x_2_6 <= -0
constr(56):  y_3 <= 1
constr(57):  - y_1 + x_3_1 <= -0
constr(58):  - y_2 + x_3_2 <= -0
constr(59):  - y_3 + x_3_3 <= -0
constr(60):  - y_4 + x_3_4 <= -0
constr(61):  - y_5 + x_3_5 <= -0
constr(62):  - y_6 + x_3_6 <= -0
constr(63):  y_4 <= 1
constr(64):  - y_1 + x_4_1 <= -0
constr(65):  - y_2 + x_4_2 <= -0
constr(66):  - y_3 + x_4_3 <= -0
constr(67):  - y_4 + x_4_4 <= -0
constr(68):  - y_5 + x_4_5 <= -0
constr(69):  - y_6 + x_4_6 <= -0
constr(70):  y_5 <= 1
constr(71):  - y_1 + x_5_1 <= -0
constr(72):  - y_2 + x_5_2 <= -0
constr(73):  - y_3 + x_5_3 <= -0
constr(74):  - y_4 + x_5_4 <= -0
constr(75):  - y_5 + x_5_5 <= -0
constr(76):  - y_6 + x_5_6 <= -0
constr(77):  y_6 <= 1
constr(78):  - y_1 + x_6_1 <= -0
constr(79):  - y_2 + x_6_2 <= -0
constr(80):  - y_3 + x_6_3 <= -0
constr(81):  - y_4 + x_6_4 <= -0
constr(82):  - y_5 + x_6_5 <= -0
constr(83):  - y_6 + x_6_6 <= -0
Bounds
Integers
y_1 y_2 y_3 y_4 y_5 y_6 x_1_1 x_1_2 x_1_3 x_1_4 
x_1_5 x_1_6 x_2_1 x_2_2 x_2_3 x_2_4 x_2_5 x_2_6 x_3_1 x_3_2 
x_3_3 x_3_4 x_3_5 x_3_6 x_4_1 x_4_2 x_4_3 x_4_4 x_4_5 x_4_6 
x_5_1 x_5_2 x_5_3 x_5_4 x_5_5 x_5_6 x_6_1 x_6_2 x_6_3 x_6_4 
x_6_5 x_6_6 
End
